1.0 2 30
0.1 2 28
0.2 2 36
0.3 2 32
0.4 2 36
0.5 2 36
0.6 2 34
0.7 2 32
0.8 2 30
0.9 2 34
1.0 2 32
1.1 2 38
1.2 2 34
1.3 2 26
1.4 2 36
1.5 2 32
1.6 2 36
1.7 2 32
1.8 2 28
1.9 2 34
2.0 2 30
2.1 2 34
2.2 2 34
2.3 2 30
2.4 2 36
2.5 2 26
2.6 2 34
2.7 2 26
2.8 2 32
2.9 2 30
3.0 2 28
3.1 2 30
3.2 2 32
3.3 2 38
3.4 2 28
3.5 2 36
3.6 2 26
3.7 2 36
3.8 2 32
3.9 2 28
4.0 2 34
4.1 2 36
4.2 2 22
4.3 2 32
4.4 2 28
4.5 2 28
4.6 2 28
4.7 2 26
4.8 2 24
4.9 2 42
5.0 2 34
5.1 2 38
5.2 2 24
5.3 2 34
5.4 2 36
5.5 2 32
5.6 2 42
5.7 2 28
5.8 2 28
5.9 2 32
6.0 2 32
6.1 2 34
6.2 2 32
6.3 2 28
6.4 2 32
6.5 2 28
6.6 2 34
6.7 2 26
6.8 2 32
6.9 2 24
7.0 2 34
7.1 2 30
7.2 2 28
7.3 2 34
7.4 2 26
7.5 2 38
7.6 2 28
7.7 2 34
7.8 2 34
7.9 2 28
8.0 2 32
8.1 2 40
8.2 2 38
8.3 2 34
8.4 2 34
8.5 2 34
8.6 2 36
8.7 2 34
8.8 2 26
8.9 2 32
9.0 2 28
9.1 2 32
9.2 2 32
9.3 2 30
9.4 2 38
9.5 2 32
9.6 2 34
9.7 2 36
9.8 2 30
9.9 2 32
10.0 2 26
0.1 3 26
0.2 3 34
0.3 3 30
0.4 3 38
0.5 3 30
0.6 3 26
0.7 3 28
0.8 3 34
0.9 3 28
1.0 3 32
1.1 3 32
1.2 3 30
1.3 3 36
1.4 3 34
1.5 3 30
1.6 3 32
1.7 3 30
1.8 3 32
1.9 3 34
2.0 3 36
2.1 3 24
2.2 3 36
2.3 3 32
2.4 3 34
2.5 3 38
2.6 3 36
2.7 3 32
2.8 3 32
2.9 3 32
3.0 3 30
3.1 3 30
3.2 3 32
3.3 3 32
3.4 3 34
3.5 3 36
3.6 3 38
3.7 3 36
3.8 3 32
3.9 3 32
4.0 3 30
4.1 3 30
4.2 3 24
4.3 3 28
4.4 3 36
4.5 3 38
4.6 3 22
4.7 3 34
4.8 3 36
4.9 3 28
5.0 3 36
5.1 3 30
5.2 3 34
5.3 3 34
5.4 3 32
5.5 3 30
5.6 3 32
5.7 3 38
5.8 3 34
5.9 3 32
6.0 3 28
6.1 3 36
6.2 3 30
6.3 3 32
6.4 3 32
6.5 3 36
6.6 3 24
6.7 3 30
6.8 3 40
6.9 3 36
7.0 3 30
7.1 3 32
7.2 3 28
7.3 3 38
7.4 3 28
7.5 3 32
7.6 3 30
7.7 3 28
7.8 3 34
7.9 3 30
8.0 3 30
8.1 3 34
8.2 3 30
8.3 3 32
8.4 3 24
8.5 3 32
8.6 3 30
8.7 3 30
8.8 3 26
8.9 3 24
9.0 3 24
9.1 3 34
9.2 3 30
9.3 3 32
9.4 3 36
9.5 3 32
9.6 3 22
9.7 3 34
9.8 3 30
9.9 3 30
10.0 3 34
0.1 4 26
0.2 4 32
0.3 4 28
0.4 4 28
0.5 4 32
0.6 4 34
0.7 4 32
0.8 4 36
0.9 4 30
1.0 4 34
1.1 4 30
1.2 4 34
1.3 4 32
1.4 4 30
1.5 4 28
1.6 4 28
1.7 4 32
1.8 4 28
1.9 4 38
2.0 4 34
2.1 4 32
2.2 4 22
2.3 4 34
2.4 4 28
2.5 4 36
2.6 4 32
2.7 4 32
2.8 4 32
2.9 4 34
3.0 4 30
3.1 4 34
3.2 4 30
3.3 4 32
3.4 4 32
3.5 4 30
3.6 4 30
3.7 4 32
3.8 4 28
3.9 4 34
4.0 4 36
4.1 4 28
4.2 4 32
4.3 4 26
4.4 4 30
4.5 4 34
4.6 4 34
4.7 4 24
4.8 4 32
4.9 4 30
5.0 4 30
5.1 4 32
5.2 4 36
5.3 4 32
5.4 4 32
5.5 4 32
5.6 4 26
5.7 4 30
5.8 4 34
5.9 4 32
6.0 4 40
6.1 4 26
6.2 4 30
6.3 4 28
6.4 4 28
6.5 4 26
6.6 4 34
6.7 4 34
6.8 4 34
6.9 4 30
7.0 4 36
7.1 4 36
7.2 4 32
7.3 4 34
7.4 4 28
7.5 4 28
7.6 4 30
7.7 4 36
7.8 4 38
7.9 4 32
8.0 4 28
8.1 4 32
8.2 4 32
8.3 4 36
8.4 4 36
8.5 4 22
8.6 4 32
8.7 4 34
8.8 4 28
8.9 4 28
9.0 4 36
9.1 4 38
9.2 4 30
9.3 4 34
9.4 4 28
9.5 4 34
9.6 4 40
9.7 4 28
9.8 4 34
9.9 4 28
10.0 4 38
0.1 5 28
0.2 5 32
0.3 5 34
0.4 5 36
0.5 5 40
0.6 5 26
0.7 5 38
0.8 5 36
0.9 5 40
1.0 5 22
1.1 5 32
1.2 5 32
1.3 5 36
1.4 5 24
1.5 5 40
1.6 5 38
1.7 5 34
1.8 5 30
1.9 5 26
2.0 5 34
2.1 5 38
2.2 5 34
2.3 5 32
2.4 5 36
2.5 5 26
2.6 5 32
2.7 5 28
2.8 5 32
2.9 5 30
3.0 5 24
3.1 5 28
3.2 5 34
3.3 5 30
3.4 5 38
3.5 5 32
3.6 5 28
3.7 5 30
3.8 5 30
3.9 5 32
4.0 5 30
4.1 5 24
4.2 5 24
4.3 5 32
4.4 5 32
4.5 5 30
4.6 5 22
4.7 5 34
4.8 5 28
4.9 5 36
5.0 5 26
5.1 5 30
5.2 5 30
5.3 5 34
5.4 5 26
5.5 5 32
5.6 5 32
5.7 5 34
5.8 5 34
5.9 5 26
6.0 5 32
6.1 5 36
6.2 5 36
6.3 5 32
6.4 5 30
6.5 5 26
6.6 5 32
6.7 5 36
6.8 5 36
6.9 5 30
7.0 5 32
7.1 5 32
7.2 5 30
7.3 5 28
7.4 5 32
7.5 5 32
7.6 5 38
7.7 5 36
7.8 5 36
7.9 5 22
8.0 5 30
8.1 5 28
8.2 5 30
8.3 5 26
8.4 5 38
8.5 5 28
8.6 5 40
8.7 5 32
8.8 5 30
8.9 5 30
9.0 5 36
9.1 5 34
9.2 5 32
9.3 5 32
9.4 5 34
9.5 5 28
9.6 5 36
9.7 5 36
9.8 5 32
9.9 5 30
10.0 5 32
0.1 6 34
0.2 6 28
0.3 6 22
0.4 6 32
0.5 6 22
0.6 6 34
0.7 6 34
0.8 6 40
0.9 6 26
1.0 6 32
1.1 6 30
1.2 6 30
1.3 6 34
1.4 6 32
1.5 6 38
1.6 6 32
1.7 6 28
1.8 6 32
1.9 6 30
2.0 6 34
2.1 6 32
2.2 6 32
2.3 6 34
2.4 6 36
2.5 6 28
2.6 6 28
2.7 6 28
2.8 6 28
2.9 6 32
3.0 6 34
3.1 6 40
3.2 6 32
3.3 6 30
3.4 6 36
3.5 6 38
3.6 6 30
3.7 6 32
3.8 6 26
3.9 6 32
4.0 6 38
4.1 6 28
4.2 6 32
4.3 6 34
4.4 6 34
4.5 6 30
4.6 6 32
4.7 6 36
4.8 6 26
4.9 6 30
5.0 6 28
5.1 6 30
5.2 6 24
5.3 6 32
5.4 6 36
5.5 6 36
5.6 6 26
5.7 6 32
5.8 6 28
5.9 6 38
6.0 6 36
6.1 6 26
6.2 6 36
6.3 6 24
6.4 6 34
6.5 6 42
6.6 6 36
6.7 6 32
6.8 6 28
6.9 6 32
7.0 6 26
7.1 6 36
7.2 6 32
7.3 6 28
7.4 6 38
7.5 6 30
7.6 6 30
7.7 6 32
7.8 6 32
7.9 6 42
8.0 6 30
8.1 6 34
8.2 6 32
8.3 6 26
8.4 6 28
8.5 6 34
8.6 6 34
8.7 6 34
8.8 6 38
8.9 6 30
9.0 6 34
9.1 6 36
9.2 6 32
9.3 6 34
9.4 6 34
9.5 6 30
9.6 6 32
9.7 6 34
9.8 6 32
9.9 6 38
10.0 6 32
0.1 7 32
0.2 7 32
0.3 7 36
0.4 7 32
0.5 7 30
0.6 7 32
0.7 7 24
0.8 7 32
0.9 7 28
1.0 7 38
1.1 7 26
1.2 7 32
1.3 7 28
1.4 7 28
1.5 7 30
1.6 7 34
1.7 7 34
1.8 7 30
1.9 7 32
2.0 7 36
2.1 7 32
2.2 7 28
2.3 7 30
2.4 7 28
2.5 7 30
2.6 7 32
2.7 7 30
2.8 7 26
2.9 7 36
3.0 7 30
3.1 7 32
3.2 7 28
3.3 7 32
3.4 7 32
3.5 7 38
3.6 7 32
3.7 7 32
3.8 7 36
3.9 7 28
4.0 7 28
4.1 7 28
4.2 7 24
4.3 7 38
4.4 7 34
4.5 7 32
4.6 7 34
4.7 7 32
4.8 7 34
4.9 7 30
5.0 7 36
5.1 7 36
5.2 7 34
5.3 7 30
5.4 7 28
5.5 7 36
5.6 7 38
5.7 7 30
5.8 7 32
5.9 7 28
6.0 7 38
6.1 7 30
6.2 7 34
6.3 7 34
6.4 7 36
6.5 7 36
6.6 7 32
6.7 7 28
6.8 7 34
6.9 7 28
7.0 7 30
7.1 7 32
7.2 7 28
7.3 7 32
7.4 7 34
7.5 7 30
7.6 7 36
7.7 7 30
7.8 7 32
7.9 7 32
8.0 7 32
8.1 7 30
8.2 7 30
8.3 7 36
8.4 7 32
8.5 7 36
8.6 7 32
8.7 7 36
8.8 7 34
8.9 7 34
9.0 7 32
9.1 7 26
9.2 7 28
9.3 7 40
9.4 7 36
9.5 7 28
9.6 7 34
9.7 7 34
9.8 7 34
9.9 7 30
10.0 7 32
0.1 8 28
0.2 8 30
0.3 8 30
0.4 8 36
0.5 8 30
0.6 8 32
0.7 8 30
0.8 8 28
0.9 8 32
1.0 8 32
1.1 8 32
1.2 8 24
1.3 8 34
1.4 8 28
1.5 8 36
1.6 8 30
1.7 8 32
1.8 8 30
1.9 8 34
2.0 8 28
2.1 8 34
2.2 8 24
2.3 8 30
2.4 8 36
2.5 8 34
2.6 8 28
2.7 8 30
2.8 8 36
2.9 8 28
3.0 8 28
3.1 8 38
3.2 8 28
3.3 8 34
3.4 8 34
3.5 8 26
3.6 8 28
3.7 8 28
3.8 8 36
3.9 8 34
4.0 8 38
4.1 8 32
4.2 8 34
4.3 8 40
4.4 8 26
4.5 8 32
4.6 8 30
4.7 8 36
4.8 8 32
4.9 8 22
5.0 8 36
5.1 8 32
5.2 8 34
5.3 8 28
5.4 8 30
5.5 8 30
5.6 8 26
5.7 8 28
5.8 8 34
5.9 8 32
6.0 8 32
6.1 8 28
6.2 8 28
6.3 8 42
6.4 8 34
6.5 8 34
6.6 8 28
6.7 8 26
6.8 8 32
6.9 8 34
7.0 8 30
7.1 8 36
7.2 8 32
7.3 8 22
7.4 8 34
7.5 8 28
7.6 8 30
7.7 8 40
7.8 8 34
7.9 8 36
8.0 8 28
8.1 8 36
8.2 8 30
8.3 8 36
8.4 8 36
8.5 8 32
8.6 8 32
8.7 8 28
8.8 8 30
8.9 8 30
9.0 8 32
9.1 8 20
9.2 8 32
9.3 8 36
9.4 8 28
9.5 8 32
9.6 8 38
9.7 8 38
9.8 8 32
9.9 8 36
10.0 8 34
0.1 9 30
0.2 9 34
0.3 9 28
0.4 9 32
0.5 9 34
0.6 9 30
0.7 9 28
0.8 9 32
0.9 9 32
1.0 9 30
1.1 9 34
1.2 9 34
1.3 9 28
1.4 9 30
1.5 9 34
1.6 9 34
1.7 9 30
1.8 9 28
1.9 9 36
2.0 9 28
2.1 9 28
2.2 9 30
2.3 9 30
2.4 9 32
2.5 9 34
2.6 9 28
2.7 9 32
2.8 9 32
2.9 9 30
3.0 9 30
3.1 9 36
3.2 9 24
3.3 9 34
3.4 9 30
3.5 9 34
3.6 9 32
3.7 9 28
3.8 9 32
3.9 9 30
4.0 9 26
4.1 9 36
4.2 9 30
4.3 9 30
4.4 9 34
4.5 9 32
4.6 9 32
4.7 9 40
4.8 9 28
4.9 9 36
5.0 9 30
5.1 9 24
5.2 9 36
5.3 9 32
5.4 9 26
5.5 9 38
5.6 9 30
5.7 9 34
5.8 9 34
5.9 9 36
6.0 9 36
6.1 9 32
6.2 9 32
6.3 9 32
6.4 9 34
6.5 9 32
6.6 9 26
6.7 9 28
6.8 9 32
6.9 9 34
7.0 9 36
7.1 9 34
7.2 9 32
7.3 9 36
7.4 9 30
7.5 9 28
7.6 9 34
7.7 9 28
7.8 9 32
7.9 9 30
8.0 9 34
8.1 9 34
8.2 9 32
8.3 9 32
8.4 9 36
8.5 9 28
8.6 9 34
8.7 9 26
8.8 9 36
8.9 9 38
9.0 9 34
9.1 9 32
9.2 9 28
9.3 9 30
9.4 9 30
9.5 9 34
9.6 9 34
9.7 9 32
9.8 9 32
9.9 9 28
10.0 9 32
0.1 10 32
0.2 10 30
0.3 10 32
0.4 10 30
0.5 10 26
0.6 10 34
0.7 10 28
0.8 10 30
0.9 10 36
1.0 10 36
1.1 10 30
1.2 10 30
1.3 10 32
1.4 10 28
1.5 10 34
1.6 10 28
1.7 10 36
1.8 10 30
1.9 10 30
2.0 10 30
2.1 10 38
2.2 10 40
2.3 10 30
2.4 10 36
2.5 10 32
2.6 10 32
2.7 10 34
2.8 10 22
2.9 10 26
3.0 10 34
3.1 10 32
3.2 10 34
3.3 10 32
3.4 10 32
3.5 10 32
3.6 10 38
3.7 10 32
3.8 10 34
3.9 10 30
4.0 10 32
4.1 10 32
4.2 10 36
4.3 10 36
4.4 10 26
4.5 10 38
4.6 10 28
4.7 10 28
4.8 10 26
4.9 10 36
5.0 10 34
5.1 10 32
5.2 10 32
5.3 10 32
5.4 10 30
5.5 10 28
5.6 10 30
5.7 10 26
5.8 10 32
5.9 10 28
6.0 10 34
6.1 10 30
6.2 10 30
6.3 10 30
6.4 10 32
6.5 10 36
6.6 10 34
6.7 10 32
6.8 10 34
6.9 10 28
7.0 10 28
7.1 10 36
7.2 10 38
7.3 10 26
7.4 10 34
7.5 10 30
7.6 10 36
7.7 10 30
7.8 10 34
7.9 10 36
8.0 10 34
8.1 10 32
8.2 10 30
8.3 10 34
8.4 10 36
8.5 10 32
8.6 10 30
8.7 10 32
8.8 10 36
8.9 10 34
9.0 10 38
9.1 10 30
9.2 10 32
9.3 10 32
9.4 10 32
9.5 10 30
9.6 10 34
9.7 10 26
9.8 10 32
9.9 10 34
10.0 10 34
0.1 11 30
0.2 11 36
0.3 11 36
0.4 11 36
0.5 11 30
0.6 11 38
0.7 11 26
0.8 11 26
0.9 11 26
1.0 11 32
1.1 11 32
1.2 11 30
1.3 11 32
1.4 11 38
1.5 11 36
1.6 11 28
1.7 11 26
1.8 11 38
1.9 11 34
2.0 11 32
2.1 11 36
2.2 11 30
2.3 11 34
2.4 11 40
2.5 11 24
2.6 11 38
2.7 11 32
2.8 11 34
2.9 11 36
3.0 11 38
3.1 11 32
3.2 11 32
3.3 11 34
3.4 11 30
3.5 11 34
3.6 11 30
3.7 11 26
3.8 11 34
3.9 11 34
4.0 11 30
4.1 11 32
4.2 11 28
4.3 11 26
4.4 11 34
4.5 11 28
4.6 11 36
4.7 11 36
4.8 11 30
4.9 11 36
5.0 11 32
5.1 11 36
5.2 11 36
5.3 11 34
5.4 11 44
5.5 11 36
5.6 11 32
5.7 11 36
5.8 11 32
5.9 11 30
6.0 11 30
6.1 11 28
6.2 11 28
6.3 11 30
6.4 11 34
6.5 11 38
6.6 11 32
6.7 11 36
6.8 11 28
6.9 11 34
7.0 11 36
7.1 11 30
7.2 11 28
7.3 11 32
7.4 11 30
7.5 11 34
7.6 11 34
7.7 11 32
7.8 11 40
7.9 11 36
8.0 11 26
8.1 11 30
8.2 11 34
8.3 11 26
8.4 11 28
8.5 11 34
8.6 11 28
8.7 11 38
8.8 11 28
8.9 11 28
9.0 11 34
9.1 11 36
9.2 11 34
9.3 11 36
9.4 11 32
9.5 11 32
9.6 11 38
9.7 11 34
9.8 11 28
9.9 11 24
10.0 11 34
0.1 12 26
0.2 12 32
0.3 12 28
0.4 12 32
0.5 12 30
0.6 12 28
0.7 12 38
0.8 12 30
0.9 12 22
1.0 12 18
1.1 12 36
1.2 12 34
1.3 12 30
1.4 12 34
1.5 12 36
1.6 12 36
1.7 12 32
1.8 12 30
1.9 12 34
2.0 12 24
2.1 12 34
2.2 12 30
2.3 12 36
2.4 12 30
2.5 12 28
2.6 12 38
2.7 12 26
2.8 12 28
2.9 12 32
3.0 12 32
3.1 12 30
3.2 12 32
3.3 12 40
3.4 12 32
3.5 12 36
3.6 12 36
3.7 12 28
3.8 12 32
3.9 12 36
4.0 12 36
4.1 12 28
4.2 12 36
4.3 12 30
4.4 12 32
4.5 12 32
4.6 12 30
4.7 12 34
4.8 12 32
4.9 12 34
5.0 12 30
5.1 12 32
5.2 12 32
5.3 12 32
5.4 12 30
5.5 12 40
5.6 12 38
5.7 12 34
5.8 12 34
5.9 12 26
6.0 12 38
6.1 12 36
6.2 12 30
6.3 12 30
6.4 12 30
6.5 12 28
6.6 12 38
6.7 12 28
6.8 12 38
6.9 12 36
7.0 12 30
7.1 12 40
7.2 12 34
7.3 12 30
7.4 12 28
7.5 12 28
7.6 12 32
7.7 12 36
7.8 12 38
7.9 12 30
8.0 12 40
8.1 12 38
8.2 12 32
8.3 12 34
8.4 12 30
8.5 12 34
8.6 12 32
8.7 12 28
8.8 12 40
8.9 12 36
9.0 12 28
9.1 12 32
9.2 12 32
9.3 12 24
9.4 12 26
9.5 12 30
9.6 12 32
9.7 12 26
9.8 12 30
9.9 12 34
10.0 12 32
0.1 13 34
0.2 13 32
0.3 13 38
0.4 13 32
0.5 13 28
0.6 13 30
0.7 13 26
0.8 13 30
0.9 13 24
1.0 13 32
1.1 13 36
1.2 13 28
1.3 13 22
1.4 13 32
1.5 13 30
1.6 13 24
1.7 13 30
1.8 13 34
1.9 13 32
2.0 13 32
2.1 13 34
2.2 13 32
2.3 13 34
2.4 13 32
2.5 13 38
2.6 13 32
2.7 13 30
2.8 13 32
2.9 13 38
3.0 13 30
3.1 13 28
3.2 13 34
3.3 13 30
3.4 13 26
3.5 13 30
3.6 13 32
3.7 13 30
3.8 13 30
3.9 13 34
4.0 13 34
4.1 13 32
4.2 13 36
4.3 13 26
4.4 13 34
4.5 13 34
4.6 13 34
4.7 13 38
4.8 13 36
4.9 13 32
5.0 13 32
5.1 13 26
5.2 13 28
5.3 13 36
5.4 13 28
5.5 13 36
5.6 13 28
5.7 13 32
5.8 13 38
5.9 13 36
6.0 13 34
6.1 13 30
6.2 13 40
6.3 13 40
6.4 13 34
6.5 13 30
6.6 13 30
6.7 13 34
6.8 13 36
6.9 13 36
7.0 13 36
7.1 13 30
7.2 13 26
7.3 13 30
7.4 13 30
7.5 13 32
7.6 13 28
7.7 13 30
7.8 13 38
7.9 13 32
8.0 13 32
8.1 13 30
8.2 13 34
8.3 13 34
8.4 13 32
8.5 13 34
8.6 13 32
8.7 13 26
8.8 13 28
8.9 13 28
9.0 13 30
9.1 13 34
9.2 13 36
9.3 13 36
9.4 13 24
9.5 13 26
9.6 13 34
9.7 13 34
9.8 13 28
9.9 13 30
10.0 13 32
0.1 14 34
0.2 14 32
0.3 14 38
0.4 14 32
0.5 14 34
0.6 14 26
0.7 14 40
0.8 14 34
0.9 14 30
1.0 14 30
1.1 14 36
1.2 14 30
1.3 14 32
1.4 14 32
1.5 14 32
1.6 14 34
1.7 14 34
1.8 14 30
1.9 14 36
2.0 14 34
2.1 14 30
2.2 14 26
2.3 14 28
2.4 14 34
2.5 14 32
2.6 14 34
2.7 14 26
2.8 14 28
2.9 14 34
3.0 14 28
3.1 14 34
3.2 14 28
3.3 14 40
3.4 14 36
3.5 14 38
3.6 14 30
3.7 14 30
3.8 14 34
3.9 14 38
4.0 14 30
4.1 14 36
4.2 14 34
4.3 14 32
4.4 14 38
4.5 14 30
4.6 14 22
4.7 14 32
4.8 14 28
4.9 14 30
5.0 14 38
5.1 14 40
5.2 14 32
5.3 14 34
5.4 14 36
5.5 14 42
5.6 14 26
5.7 14 30
5.8 14 36
5.9 14 30
6.0 14 26
6.1 14 34
6.2 14 32
6.3 14 26
6.4 14 32
6.5 14 30
6.6 14 34
6.7 14 28
6.8 14 26
6.9 14 30
7.0 14 24
7.1 14 34
7.2 14 30
7.3 14 30
7.4 14 28
7.5 14 30
7.6 14 30
7.7 14 32
7.8 14 32
7.9 14 32
8.0 14 28
8.1 14 36
8.2 14 30
8.3 14 36
8.4 14 38
8.5 14 36
8.6 14 32
8.7 14 32
8.8 14 36
8.9 14 32
9.0 14 30
9.1 14 36
9.2 14 34
9.3 14 32
9.4 14 28
9.5 14 32
9.6 14 28
9.7 14 26
9.8 14 24
9.9 14 22
10.0 14 28
0.1 15 32
0.2 15 36
0.3 15 32
0.4 15 32
0.5 15 30
0.6 15 28
0.7 15 28
0.8 15 34
0.9 15 26
1.0 15 28
1.1 15 32
1.2 15 26
1.3 15 28
1.4 15 34
1.5 15 34
1.6 15 34
1.7 15 30
1.8 15 28
1.9 15 38
2.0 15 28
2.1 15 26
2.2 15 28
2.3 15 32
2.4 15 34
2.5 15 30
2.6 15 40
2.7 15 32
2.8 15 36
2.9 15 28
3.0 15 34
3.1 15 28
3.2 15 32
3.3 15 26
3.4 15 34
3.5 15 28
3.6 15 24
3.7 15 30
3.8 15 42
3.9 15 32
4.0 15 34
4.1 15 34
4.2 15 34
4.3 15 36
4.4 15 30
4.5 15 38
4.6 15 38
4.7 15 38
4.8 15 36
4.9 15 32
5.0 15 28
5.1 15 36
5.2 15 34
5.3 15 34
5.4 15 34
5.5 15 32
5.6 15 22
5.7 15 34
5.8 15 36
5.9 15 36
6.0 15 32
6.1 15 34
6.2 15 32
6.3 15 28
6.4 15 30
6.5 15 34
6.6 15 36
6.7 15 32
6.8 15 32
6.9 15 34
7.0 15 28
7.1 15 34
7.2 15 38
7.3 15 34
7.4 15 26
7.5 15 26
7.6 15 36
7.7 15 32
7.8 15 34
7.9 15 30
8.0 15 38
8.1 15 36
8.2 15 30
8.3 15 36
8.4 15 30
8.5 15 28
8.6 15 36
8.7 15 30
8.8 15 28
8.9 15 36
9.0 15 30
9.1 15 36
9.2 15 36
9.3 15 30
9.4 15 32
9.5 15 30
9.6 15 32
9.7 15 30
9.8 15 34
9.9 15 34
10.0 15 36
0.1 16 36
0.2 16 28
0.3 16 28
0.4 16 32
0.5 16 28
0.6 16 28
0.7 16 32
0.8 16 28
0.9 16 34
1.0 16 38
1.1 16 36
1.2 16 34
1.3 16 36
1.4 16 30
1.5 16 30
1.6 16 36
1.7 16 36
1.8 16 34
1.9 16 34
2.0 16 32
2.1 16 34
2.2 16 26
2.3 16 38
2.4 16 36
2.5 16 32
2.6 16 30
2.7 16 32
2.8 16 34
2.9 16 28
3.0 16 36
3.1 16 32
3.2 16 32
3.3 16 28
3.4 16 30
3.5 16 34
3.6 16 32
3.7 16 30
3.8 16 30
3.9 16 28
4.0 16 30
4.1 16 30
4.2 16 34
4.3 16 32
4.4 16 32
4.5 16 38
4.6 16 30
4.7 16 28
4.8 16 34
4.9 16 32
5.0 16 30
5.1 16 30
5.2 16 32
5.3 16 34
5.4 16 34
5.5 16 34
5.6 16 34
5.7 16 34
5.8 16 30
5.9 16 36
6.0 16 34
6.1 16 32
6.2 16 28
6.3 16 32
6.4 16 26
6.5 16 30
6.6 16 20
6.7 16 28
6.8 16 32
6.9 16 24
7.0 16 34
7.1 16 26
7.2 16 32
7.3 16 32
7.4 16 32
7.5 16 28
7.6 16 28
7.7 16 34
7.8 16 36
7.9 16 34
8.0 16 30
8.1 16 34
8.2 16 34
8.3 16 30
8.4 16 34
8.5 16 36
8.6 16 34
8.7 16 28
8.8 16 40
8.9 16 30
9.0 16 30
9.1 16 30
9.2 16 32
9.3 16 28
9.4 16 32
9.5 16 38
9.6 16 32
9.7 16 32
9.8 16 30
9.9 16 32
10.0 16 26
best result: 18 dla alfa = 12, gamma = 1
(solution 16)
